
Gurobi 13.0.2 (win64) logging started Thu Jul 23 05:59:06 2026

Set parameter LogFile to value "E:\codes\ExactEBRP\results\gf_cplex_equivalent_gurobi_replica_round28\runs\stage2__moderate_seed4302__c3_replica__300s\external\native_logs\R.0.0.0.1.0.0.1.1.0_terminal_mip.gurobi.log"
Gurobi Optimizer version 13.0.2 build v13.0.2rc1 (win64 - Windows 10.0 (19045.2))

CPU model: 12th Gen Intel(R) Core(TM) i7-12700KF, instruction set [SSE2|AVX|AVX2]
Thread count: 12 physical cores, 20 logical processors, using up to 1 threads

Non-default parameters:
TimeLimit  204.6518336
MIPGap  0
MIPGapAbs  0
LogToConsole  0
Threads  1

Optimize a model with 11919 rows, 3378 columns and 67378 nonzeros (Min)
Model fingerprint: 0x92ebc019
Model has 21 linear objective coefficients
Variable types: 1686 continuous, 1692 integer (1492 binary)
Coefficient statistics:
  Matrix range     [4e-03, 2e+04]
  Objective range  [7e-03, 1e+00]
  Bounds range     [4e-03, 1e+02]
  RHS range        [4e-03, 5e+04]

Presolve removed 6943 rows and 1105 columns
Presolve time: 0.28s
Presolved: 4976 rows, 2273 columns, 29200 nonzeros
Variable types: 1116 continuous, 1157 integer (1047 binary)

Root relaxation: objective 4.212840e-03, 1355 iterations, 0.04 seconds (0.11 work units)

    Nodes    |    Current Node    |     Objective Bounds      |     Work
 Expl Unexpl |  Obj  Depth IntInf | Incumbent    BestBd   Gap | It/Node Time

     0     0    0.00421    0  179          -    0.00421      -     -    0s
     0     0    0.00421    0  181          -    0.00421      -     -    0s
     0     0    0.00421    0  226          -    0.00421      -     -    0s
     0     0    0.00421    0  223          -    0.00421      -     -    0s
     0     0    0.00421    0  255          -    0.00421      -     -    1s
     0     0    0.00421    0  255          -    0.00421      -     -    1s
     0     0    0.00421    0  230          -    0.00421      -     -    1s
     0     0    0.00421    0  232          -    0.00421      -     -    1s
     0     0    0.00421    0  240          -    0.00421      -     -    1s
     0     0    0.00421    0  240          -    0.00421      -     -    1s
     0     0    0.00421    0  255          -    0.00421      -     -    1s
     0     0    0.00423    0  260          -    0.00423      -     -    2s
     0     0    0.00423    0  259          -    0.00423      -     -    2s
     0     0    0.00424    0  269          -    0.00424      -     -    2s
     0     0    0.00427    0  307          -    0.00427      -     -    2s
     0     0    0.00428    0  299          -    0.00428      -     -    2s
     0     0 infeasible    0               - infeasible      -     -    2s

Cutting planes:
  Learned: 17
  Cover: 26
  Implied bound: 109
  Clique: 18
  MIR: 41
  StrongCG: 1
  Flow cover: 46
  GUB cover: 2
  Zero half: 15
  Network: 20
  RLT: 11
  Relax-and-lift: 40
  BQP: 4

Explored 1 nodes (17234 simplex iterations) in 2.67 seconds (5.07 work units)
Thread count was 1 (of 20 available processors)

Solution count 0

Model is infeasible
Best objective -, best bound -, gap -

User-callback calls 1471, time in user-callback 0.00 sec
